LAMMPS (10 Sep 2025 - Development - patch_10Sep2025-660-g792d014343)
OMP_NUM_THREADS environment is not set. Defaulting to 1 thread.
  using 1 OpenMP thread(s) per MPI task
units real
atom_style molecular
boundary p p p



pair_style lj/cut 5.0
bond_style harmonic
angle_style harmonic



special_bonds lj 0.0 0.0 0.5
read_data input_water_with_topology.txt
Reading data file ...
  orthogonal box = (0 0 0) to (100 100 100)
  1 by 1 by 1 MPI processor grid
  reading atoms ...
  73167 atoms
  scanning bonds ...
  2 = max bonds/atom
  scanning angles ...
  1 = max angles/atom
  orthogonal box = (0 0 0) to (100 100 100)
  1 by 1 by 1 MPI processor grid
  reading bonds ...
  48778 bonds
  reading angles ...
  24389 angles
Finding 1-2 1-3 1-4 neighbors ...
  special bond factors lj:    0        0        0.5     
  special bond factors coul:  0        0        0       
     2 = max # of 1-2 neighbors
     1 = max # of 1-3 neighbors
     1 = max # of 1-4 neighbors
     2 = max # of special neighbors
  special bonds CPU = 0.009 seconds
  read_data CPU = 0.224 seconds
include water_utilities.txt
bond_coeff   1         1000.0   1.0
angle_coeff  1       1000.0    109.47
pair_coeff   1 1  0.1553  3.166
pair_coeff   2 2  0.0     0.0
pair_modify mix arithmetic # using Lorenz-Berthelot mixing rules




group water type 1 2
73167 atoms in group water
velocity water create 300 48455 mom yes rot yes



fix integrator all nvt temp 300.0 300.0 0.1
thermo_style custom step   temp  press
thermo 100
timestep 0.0001



run 10000
Generated 1 of 1 mixed pair_coeff terms from arithmetic mixing rule
Neighbor list info ...
  update: every = 1 steps, delay = 0 steps, check = yes
  max neighbors/atom: 2000, page size: 100000
  master list distance cutoff = 7
  ghost atom cutoff = 7
  binsize = 3.5, bins = 29 29 29
  1 neighbor lists, perpetual/occasional/extra = 1 0 0
  (1) pair lj/cut, perpetual
      attributes: half, newton on
      pair build: half/bin/newton
      stencil: half/bin/3d
      bin: standard
WARNING: Inconsistent image flags
For more information see https://docs.lammps.org/err0027 (src/domain.cpp:1052)
Per MPI rank memory allocation (min/avg/max) = 59.85 | 59.85 | 59.85 Mbytes
   Step          Temp          Press     
         0   300            4034814.9    
       100   17341.554      3154216.8    
       200   25496.314      2556655.7    
       300   26172.423      2234505.9    
       400   24791.073      1989717.4    
       500   22683.655      1789763.8    
       600   20361.223      1625221.6    
       700   18084.151      1489404.6    
       800   15982.086      1376592.8    
       900   14107.26       1282064.5    
      1000   12468.295      1202064.5    
      1100   11051.594      1133663.4    
      1200   9833.9694      1074591.4    
      1300   8789.5882      1023089.8    
      1400   7893.4941      977789.5     
      1500   7123.167       937617.74    
      1600   6459.0236      901727.34    
      1700   5884.389       869443.28    
      1800   5385.2348      840222.97    
      1900   4949.8366      813626.39    
      2000   4568.4265      789293.63    
      2100   4232.8748      766927.9     
      2200   3936.4105      746282.43    
      2300   3673.3852      727150.61    
      2400   3439.0758      709358.13    
      2500   3229.5221      692757       
      2600   3041.3923      677220.8     
      2700   2871.8745      662640.81    
      2800   2718.587       648923.12    
      2900   2579.5054      635986.07    
      3000   2452.9028      623758.39    
      3100   2337.3007      612177.58    
      3200   2231.4291      601188.54    
      3300   2134.1932      590742.53    
      3400   2044.6458      580796.23    
      3500   1961.9652      571310.99    
      3600   1885.4357      562252.35    
      3700   1814.4324      553589.22    
      3800   1748.4076      545293.72    
      3900   1686.8803      537340.6     
      4000   1629.4266      529706.99    
      4100   1575.6718      522372.15    
      4200   1525.2839      515317.15    
      4300   1477.9681      508524.72    
      4400   1433.4616      501979.06    
      4500   1391.5299      495665.65    
      4600   1351.963       489571.2     
      4700   1314.5727      483683.42    
      4800   1279.1895      477990.96    
      4900   1245.6608      472483.39    
      5000   1213.8488      467150.99    
      5100   1183.6287      461984.72    
      5200   1154.8874      456976.21    
      5300   1127.5221      452117.72    
      5400   1101.4392      447401.91    
      5500   1076.5533      442822.06    
      5600   1052.7864      438371.79    
      5700   1030.0671      434045.19    
      5800   1008.33        429836.64    
      5900   987.51486      425740.95    
      6000   967.56633      421753.19    
      6100   948.43342      417868.73    
      6200   930.06906      414083.25    
      6300   912.42973      410392.64    
      6400   895.47516      406793.03    
      6500   879.16799      403280.76    
      6600   863.47356      399852.41    
      6700   848.35963      396504.63    
      6800   833.79621      393234.34    
      6900   819.75533      390038.64    
      7000   806.2109       386914.71    
      7100   793.13855      383859.95    
      7200   780.51547      380871.8     
      7300   768.3203       377947.9     
      7400   756.53303      375085.95    
      7500   745.13487      372283.79    
      7600   734.10817      369539.37    
      7700   723.43633      366850.75    
      7800   713.10373      364216.04    
      7900   703.09565      361633.44    
      8000   693.39821      359101.23    
      8100   683.99831      356617.8     
      8200   674.88357      354181.61    
      8300   666.04228      351791.13    
      8400   657.46339      349444.95    
      8500   649.1364       347141.65    
      8600   641.05137      344879.98    
      8700   633.19888      342658.66    
      8800   625.56999      340476.49    
      8900   618.15621      338332.31    
      9000   610.94947      336225       
      9100   603.94208      334153.5     
      9200   597.12676      332116.8     
      9300   590.49654      330113.92    
      9400   584.0448       328143.9     
      9500   577.76522      326205.8     
      9600   571.6518       324298.78    
      9700   565.69876      322421.99    
      9800   559.90064      320574.65    
      9900   554.25218      318755.96    
     10000   548.74839      316965.16    
Loop time of 274.986 on 1 procs for 10000 steps with 73167 atoms

Performance: 0.000 ns/day, 76384.992 hours/ns, 36.365 timesteps/s, 2.661 Matom-step/s
100.0% CPU use with 1 MPI tasks x 1 OpenMP threads

MPI task timing breakdown:
Section |  min time  |  avg time  |  max time  |%varavg| %total
---------------------------------------------------------------
Pair    | 248.24     | 248.24     | 248.24     |   0.0 | 90.27
Bond    | 12.496     | 12.496     | 12.496     |   0.0 |  4.54
Neigh   | 0.10832    | 0.10832    | 0.10832    |   0.0 |  0.04
Comm    | 1.8941     | 1.8941     | 1.8941     |   0.0 |  0.69
Output  | 0.021496   | 0.021496   | 0.021496   |   0.0 |  0.01
Modify  | 8.8613     | 8.8613     | 8.8613     |   0.0 |  3.22
Other   |            | 3.369      |            |       |  1.23

Nlocal:          73167 ave       73167 max       73167 min
Histogram: 1 0 0 0 0 0 0 0 0 0
Nghost:          35431 ave       35431 max       35431 min
Histogram: 1 0 0 0 0 0 0 0 0 0
Neighs:    3.75817e+06 ave 3.75817e+06 max 3.75817e+06 min
Histogram: 1 0 0 0 0 0 0 0 0 0

Total # of neighbors = 3758169
Ave neighs/atom = 51.364263
Ave special neighs/atom = 2
Neighbor list builds = 1
Dangerous builds = 0
timestep 1
unfix integrator
fix integrator all nvt temp 300.0 300.0 10


timestep 0.1

dump 1 all custom 100 simulation_data.lammpstrj id type x y z
run 10000
Generated 1 of 1 mixed pair_coeff terms from arithmetic mixing rule
WARNING: Inconsistent image flags
For more information see https://docs.lammps.org/err0027 (src/domain.cpp:1052)
Per MPI rank memory allocation (min/avg/max) = 59.85 | 59.85 | 59.85 Mbytes
   Step          Temp          Press     
     10000   548.74839      316965.16    
     10100   2940.6242      50469.949    
     10200   1753.3194      29573.19     
     10300   1133.4685      23350.623    
     10400   725.59198      8602.7354    
     10500   496.43778      15009.863    
     10600   395.82717      44.507898    
     10700   329.87451      12349.518    
     10800   264.44342     -3358.1138    
     10900   262.80995      10467.212    
     11000   281.23403     -2565.9011    
     11100   299.50927      9756.0334    
     11200   300.76521      185.32122    
     11300   319.31539      8704.2012    
     11400   309.90168      5432.8785    
     11500   299.24117      6958.2497    
     11600   314.13112      9808.2635    
     11700   320.96991      6129.7817    
     11800   296.1373       12625.148    
     11900   272.16723      4824.4565    
     12000   290.15287      13099.706    
     12100   298.21183      4861.0099    
     12200   301.08823      10794.559    
     12300   304.77085      5168.4032    
     12400   316.26937      6834.864     
     12500   311.03792      5707.8777    
     12600   315.80807      1643.2528    
     12700   321.33611      6400.2734    
     12800   296.43286     -2516.9875    
     12900   277.13397      6388.4935    
     13000   275.48084     -4796.2096    
     13100   290.70671      6819.3052    
     13200   283.14234     -4331.8652    
     13300   288.64819      6555.9117    
     13400   295.76853     -906.06754    
     13500   307.19644      6299.3365    
     13600   311.08291      3381.3508    
     13700   320.60244      5769.8619    
     13800   312.13546      7938.3785    
     13900   295.16941      5080.7296    
     14000   296.03521      10857.896    
     14100   299.42997      4968.539     
     14200   297.02593      11861.347    
     14300   284.66632      4954.2586    
     14400   294.33726      10363.309    
     14500   303.50506      5487.7087    
     14600   315.91822      7074.3467    
     14700   319.24427      5829.8532    
     14800   316.26729      2874.4008    
     14900   305.11699      5798.7276    
     15000   297.18323     -1156.3355    
     15100   297.79315      5652.0615    
     15200   283.9249      -3448.6193    
     15300   278.14337      5364.6071    
     15400   277.15044     -3205.8247    
     15500   291.75721      5304.8601    
     15600   300.86527     -766.8256     
     15700   312.24082      5263.014     
     15800   309.58761      3114.3604    
     15900   308.49055      5117.8277    
     16000   308.36607      6872.0295    
     16100   308.0662       5063.9707    
     16200   300.08229      9720.3757    
     16300   287.47449      5124.2433    
     16400   289.61118      10780.315    
     16500   292.34621      5529.3921    
     16600   301.32723      9905.1341    
     16700   304.96966      5861.9802    
     16800   310.13991      7357.3579    
     16900   310.22153      5810.9307    
     17000   317.14751      3839.3407    
     17100   316.80083      5472.039     
     17200   303.58634      367.63754    
     17300   289.30434      4651.5108    
     17400   280.47132     -1818.8483    
     17500   283.03813      4117.1246    
     17600   280.77401     -2090.7802    
     17700   289.95776      3940.3005    
     17800   296.62185     -94.409317    
     17900   304.48033      4169.0825    
     18000   311.58998      2905.8356    
     18100   321.66448      4643.153     
     18200   312.7409       6225.1064    
     18300   297.77228      4944.6392    
     18400   293.85286      8615.7983    
     18500   294.49651      5573.2001    
     18600   292.29236      9780.4161    
     18700   289.22966      5976.5004    
     18800   297.20771      9366.2674    
     18900   301.39731      6250.7468    
     19000   309.92053      7384.8629    
     19100   317.78606      5940.9239    
     19200   320.21234      4709.2343    
     19300   307.50153      4993.2064    
     19400   301.64529      1706.9731    
     19500   300.24221      3921.7549    
     19600   287.92246     -374.66235    
     19700   277.89553      2775.1161    
     19800   276.80025     -839.44579    
     19900   286.19188      2628.9376    
     20000   293.35183      351.15295    
Loop time of 295.477 on 1 procs for 10000 steps with 73167 atoms

Performance: 0.292 ns/day, 82.077 hours/ns, 33.844 timesteps/s, 2.476 Matom-step/s
99.9% CPU use with 1 MPI tasks x 1 OpenMP threads

MPI task timing breakdown:
Section |  min time  |  avg time  |  max time  |%varavg| %total
---------------------------------------------------------------
Pair    | 259.17     | 259.17     | 259.17     |   0.0 | 87.71
Bond    | 13.346     | 13.346     | 13.346     |   0.0 |  4.52
Neigh   | 3.1223     | 3.1223     | 3.1223     |   0.0 |  1.06
Comm    | 2.1695     | 2.1695     | 2.1695     |   0.0 |  0.73
Output  | 4.759      | 4.759      | 4.759      |   0.0 |  1.61
Modify  | 9.3878     | 9.3878     | 9.3878     |   0.0 |  3.18
Other   |            | 3.525      |            |       |  1.19

Nlocal:          73167 ave       73167 max       73167 min
Histogram: 1 0 0 0 0 0 0 0 0 0
Nghost:          35197 ave       35197 max       35197 min
Histogram: 1 0 0 0 0 0 0 0 0 0
Neighs:    3.76287e+06 ave 3.76287e+06 max 3.76287e+06 min
Histogram: 1 0 0 0 0 0 0 0 0 0

Total # of neighbors = 3762874
Ave neighs/atom = 51.428568
Ave special neighs/atom = 2
Neighbor list builds = 27
Dangerous builds = 0
Total wall time: 0:09:31
